graphs/homer.col
p edge 561 1628
e 1 35
e 1 85
e 1 86
e 1 99
e 1 119
e 1 135
e 1 152
e 1 164
e 1 178
e 1 335
e 1 447
e 1 452
e 1 485
e 1 497
e 1 549
e 1 555
e 2 64
e 2 151
e 2 211
e 2 244
e 2 259
e 2 276
e 2 391
e 2 445
e 2 447
e 2 449
e 3 498
e 4 411
e 4 457
e 5 88
e 5 244
e 5 285
e 5 295
e 5 528
e 6 44
e 6 165
e 6 244
e 7 262
e 8 61
e 8 406
e 9 457
e 10 114
e 10 310
e 10 317
e 10 321
e 10 422
e 11 49
e 11 76
e 11 78
e 11 83
e 11 219
e 11 349
e 11 416
e 11 517
e 12 61
e 12 62
e 12 85
e 12 164
e 12 177
e 12 178
e 12 218
e 12 259
e 13 416
e 13 524
e 13 526
e 13 549
e 14 202
e 15 159
e 15 243
e 15 244
e 15 356
e 15 398
e 15 465
e 15 487
e 15 508
e 15 558
e 16 429
e 17 49
e 17 53
e 17 78
e 17 150
e 17 204
e 17 207
e 17 244
e 17 262
e 17 336
e 17 416
e 17 445
e 17 496
e 17 498
e 17 510
e 17 549
e 18 44
e 19 184
e 19 209
e 19 351
e 19 384
e 19 451
e 19 510
e 19 531
e 20 492
e 21 361
e 22 361
e 23 202
e 24 276
e 24 510
e 25 30
e 25 57
e 25 227
e 25 247
e 25 285
e 25 292
e 25 361
e 25 416
e 25 433
e 25 492
e 25 528
e 26 150
e 26 418
e 27 239
e 27 528
e 28 452
e 28 549
e 29 376
e 30 222
e 30 247
e 30 416
e 30 555
e 31 61
e 31 521
e 32 35
e 32 69
e 32 152
e 32 222
e 32 300
e 32 368
e 32 369
e 32 408
e 32 560
e 33 312
e 33 392
e 34 108
e 34 147
e 34 165
e 34 297
e 34 367
e 34 378
e 34 416
e 34 496
e 35 40
e 35 61
e 35 69
e 35 85
e 35 86
e 35 99
e 35 119
e 35 123
e 35 135
e 35 152
e 35 159
e 35 160
e 35 161
e 35 164
e 35 178
e 35 196
e 35 222
e 35 244
e 35 254
e 35 261
e 35 291
e 35 300
e 35 323
e 35 327
e 35 335
e 35 340
e 35 341
e 35 368
e 35 369
e 35 408
e 35 450
e 35 452
e 35 485
e 35 497
e 35 528
e 35 560
e 36 452
e 37 202
e 38 61
e 38 234
e 38 473
e 38 511
e 39 168
e 39 184
e 40 123
e 40 160
e 40 161
e 40 340
e 40 341
e 40 452
e 41 202
e 42 203
e 42 267
e 42 405
e 42 452
e 42 526
e 43 165
e 44 134
e 44 150
e 44 154
e 44 161
e 44 165
e 44 218
e 44 244
e 44 276
e 44 285
e 44 329
e 44 345
e 44 400
e 44 424
e 44 452
e 44 492
e 44 510
e 44 512
e 44 526
e 44 528
e 44 549
e 44 561
e 45 62
e 46 104
e 46 192
e 46 218
e 46 330
e 46 361
e 46 367
e 46 410
e 46 416
e 46 452
e 46 496
e 46 514
e 46 553
e 47 416
e 48 297
e 48 362
e 49 53
e 49 76
e 49 78
e 49 83
e 49 141
e 49 204
e 49 207
e 49 219
e 49 262
e 49 311
e 49 336
e 49 342
e 49 349
e 49 498
e 49 517
e 49 534
e 50 152
e 50 155
e 50 183
e 50 202
e 50 203
e 50 348
e 50 425
e 50 452
e 50 502
e 51 285
e 51 452
e 52 452
e 53 78
e 53 204
e 53 207
e 53 262
e 53 336
e 53 498
e 54 60
e 54 244
e 55 285
e 55 345
e 55 400
e 56 528
e 57 227
e 57 292
e 57 433
e 57 492
e 57 528
e 58 280
e 58 452
e 59 212
e 60 244
e 61 62
e 61 114
e 61 136
e 61 145
e 61 151
e 61 154
e 61 159
e 61 161
e 61 169
e 61 174
e 61 186
e 61 202
e 61 211
e 61 218
e 61 244
e 61 249
e 61 259
e 61 276
e 61 281
e 61 285
e 61 286
e 61 310
e 61 316
e 61 319
e 61 321
e 61 361
e 61 365
e 61 391
e 61 401
e 61 402
e 61 406
e 61 424
e 61 428
e 61 441
e 61 445
e 61 447
e 61 452
e 61 462
e 61 473
e 61 482
e 61 483
e 61 497
e 61 504
e 61 510
e 61 521
e 61 525
e 61 526
e 61 538
e 61 541
e 62 66
e 62 73
e 62 120
e 62 130
e 62 169
e 62 276
e 62 286
e 62 318
e 62 492
e 62 538
e 63 387
e 64 114
e 64 154
e 64 189
e 64 244
e 64 263
e 64 277
e 64 285
e 64 314
e 64 353
e 64 381
e 64 387
e 64 452
e 64 491
e 64 545
e 64 549
e 65 526
e 66 130
e 66 169
e 66 276
e 66 286
e 67 321
e 67 401
e 68 465
e 68 487
e 69 152
e 69 222
e 69 300
e 69 368
e 69 369
e 69 408
e 69 560
e 70 492
e 70 519
e 71 423
e 72 74
e 72 99
e 72 297
e 73 492
e 74 99
e 74 299
e 74 340
e 74 510
e 75 203
e 76 78
e 76 83
e 76 219
e 76 349
e 76 517
e 77 320
e 77 452
e 78 83
e 78 103
e 78 204
e 78 207
e 78 219
e 78 235
e 78 262
e 78 336
e 78 349
e 78 414
e 78 498
e 78 517
e 79 274
e 79 518
e 80 162
e 81 154
e 82 496
e 83 219
e 83 349
e 83 517
e 83 555
e 84 452
e 85 86
e 85 99
e 85 119
e 85 135
e 85 164
e 85 177
e 85 178
e 85 335
e 85 485
e 86 99
e 86 119
e 86 135
e 86 164
e 86 178
e 86 335
e 86 447
e 86 485
e 87 203
e 87 285
e 87 405
e 87 526
e 88 244
e 88 528
e 89 202
e 89 549
e 90 476
e 91 416
e 92 557
e 94 165
e 95 202
e 95 244
e 95 356
e 95 365
e 95 400
e 95 452
e 95 475
e 95 489
e 96 340
e 96 452
e 97 496
e 98 274
e 98 398
e 99 119
e 99 135
e 99 152
e 99 164
e 99 165
e 99 178
e 99 335
e 99 485
e 99 528
e 99 549
e 100 321
e 101 244
e 101 471
e 102 137
e 102 244
e 102 363
e 102 426
e 102 479
e 102 542
e 102 554
e 104 192
e 104 267
e 104 330
e 104 553
e 105 244
e 106 518
e 107 244
e 107 468
e 108 147
e 108 165
e 108 202
e 108 244
e 108 297
e 108 367
e 108 378
e 108 380
e 108 415
e 108 416
e 108 445
e 108 496
e 108 528
e 109 391
e 109 424
e 110 202
e 111 281
e 111 447
e 112 260
e 112 367
e 112 405
e 112 472
e 113 555
e 114 150
e 114 154
e 114 189
e 114 203
e 114 228
e 114 259
e 114 267
e 114 277
e 114 285
e 114 298
e 114 314
e 114 353
e 114 361
e 114 381
e 114 387
e 114 452
e 114 491
e 114 526
e 114 528
e 114 545
e 114 549
e 115 132
e 115 264
e 115 480
e 115 497
e 117 165
e 117 202
e 117 244
e 117 285
e 117 398
e 117 415
e 118 150
e 118 495
e 119 135
e 119 164
e 119 178
e 119 335
e 119 447
e 119 485
e 121 202
e 122 526
e 123 150
e 123 159
e 123 160
e 123 161
e 123 244
e 123 285
e 123 340
e 123 380
e 123 452
e 123 528
e 123 549
e 124 202
e 125 150
e 125 185
e 125 253
e 125 528
e 125 549
e 126 150
e 126 231
e 126 313
e 126 391
e 127 264
e 128 259
e 128 530
e 129 361
e 131 150
e 131 165
e 131 308
e 132 202
e 132 244
e 132 264
e 132 365
e 132 386
e 132 480
e 132 497
e 133 374
e 134 161
e 134 211
e 134 259
e 135 164
e 135 178
e 135 335
e 135 485
e 136 528
e 137 244
e 137 363
e 137 426
e 137 479
e 137 542
e 137 554
e 138 244
e 139 263
e 139 332
e 140 269
e 140 397
e 142 496
e 143 452
e 144 285
e 145 174
e 146 464
e 146 551
e 147 150
e 147 165
e 147 171
e 147 285
e 147 297
e 147 357
e 147 367
e 147 378
e 147 385
e 147 400
e 147 410
e 147 416
e 147 492
e 147 496
e 147 528
e 147 536
e 147 549
e 147 555
e 148 496
e 148 510
e 149 506
e 150 152
e 150 162
e 150 165
e 150 185
e 150 201
e 150 208
e 150 211
e 150 231
e 150 242
e 150 244
e 150 258
e 150 259
e 150 276
e 150 283
e 150 285
e 150 301
e 150 308
e 150 326
e 150 331
e 150 350
e 150 367
e 150 376
e 150 400
e 150 416
e 150 418
e 150 419
e 150 447
e 150 452
e 150 460
e 150 492
e 150 495
e 150 496
e 150 498
e 150 510
e 150 526
e 150 528
e 150 533
e 150 546
e 150 549
e 150 555
e 151 159
e 151 211
e 151 259
e 151 445
e 151 447
e 151 526
e 152 155
e 152 157
e 152 171
e 152 180
e 152 183
e 152 188
e 152 196
e 152 203
e 152 207
e 152 222
e 152 267
e 152 276
e 152 300
e 152 309
e 152 348
e 152 357
e 152 368
e 152 369
e 152 408
e 152 410
e 152 416
e 152 425
e 152 437
e 152 447
e 152 452
e 152 464
e 152 492
e 152 496
e 152 498
e 152 502
e 152 510
e 152 526
e 152 549
e 152 555
e 152 560
e 153 400
e 154 161
e 154 198
e 154 202
e 154 203
e 154 259
e 154 267
e 154 281
e 154 285
e 154 287
e 154 290
e 154 310
e 154 345
e 154 361
e 154 452
e 154 526
e 155 183
e 155 203
e 155 348
e 155 425
e 155 452
e 155 502
e 156 215
e 156 528
e 158 452
e 159 211
e 159 218
e 159 276
e 159 391
e 159 412
e 159 431
e 159 452
e 159 487
e 159 510
e 160 161
e 160 163
e 160 340
e 160 396
e 160 447
e 160 452
e 161 165
e 161 211
e 161 244
e 161 259
e 161 285
e 161 297
e 161 340
e 161 345
e 161 400
e 161 452
e 161 480
e 161 496
e 161 501
e 161 510
e 161 526
e 161 549
e 161 555
e 162 366
e 162 376
e 162 377
e 162 389
e 162 507
e 163 452
e 164 177
e 164 178
e 164 335
e 164 485
e 165 202
e 165 217
e 165 223
e 165 230
e 165 244
e 165 245
e 165 285
e 165 297
e 165 302
e 165 304
e 165 308
e 165 329
e 165 345
e 165 346
e 165 350
e 165 352
e 165 360
e 165 367
e 165 372
e 165 378
e 165 383
e 165 395
e 165 397
e 165 398
e 165 400
e 165 403
e 165 415
e 165 416
e 165 436
e 165 440
e 165 452
e 165 467
e 165 492
e 165 496
e 165 498
e 165 510
e 165 528
e 165 549
e 165 552
e 165 555
e 166 202
e 167 251
e 167 492
e 168 184
e 169 276
e 170 286
e 170 393
e 170 462
e 170 521
e 171 222
e 171 267
e 171 357
e 171 378
e 171 385
e 171 410
e 171 416
e 171 496
e 171 526
e 171 555
e 172 198
e 173 555
e 175 452
e 176 317
e 176 321
e 176 512
e 177 178
e 177 512
e 178 335
e 178 485
e 179 240
e 179 389
e 179 507
e 181 452
e 182 452
e 183 203
e 183 348
e 183 416
e 183 425
e 183 452
e 183 502
e 184 321
e 184 393
e 184 445
e 185 253
e 186 276
e 186 538
e 187 306
e 188 434
e 188 496
e 188 549
e 189 277
e 189 285
e 189 314
e 189 353
e 189 381
e 189 387
e 189 452
e 189 491
e 189 545
e 189 549
e 190 528
e 191 361
e 192 330
e 192 553
e 193 202
e 194 525
e 194 538
e 195 202
e 196 202
e 196 208
e 196 244
e 196 261
e 196 457
e 197 452
e 199 416
e 199 452
e 200 361
e 202 207
e 202 226
e 202 230
e 202 244
e 202 259
e 202 264
e 202 275
e 202 277
e 202 279
e 202 285
e 202 294
e 202 306
e 202 333
e 202 337
e 202 365
e 202 373
e 202 380
e 202 397
e 202 398
e 202 400
e 202 415
e 202 424
e 202 438
e 202 452
e 202 457
e 202 458
e 202 463
e 202 474
e 202 481
e 202 484
e 202 492
e 202 496
e 202 498
e 202 499
e 202 526
e 202 528
e 202 539
e 202 540
e 202 549
e 202 555
e 202 559
e 203 247
e 203 259
e 203 265
e 203 267
e 203 285
e 203 288
e 203 297
e 203 330
e 203 348
e 203 405
e 203 425
e 203 452
e 203 502
e 203 526
e 203 528
e 204 207
e 204 262
e 204 336
e 204 498
e 204 526
e 205 361
e 206 549
e 207 255
e 207 262
e 207 336
e 207 380
e 207 492
e 207 498
e 207 533
e 208 259
e 208 510
e 208 526
e 208 549
e 209 384
e 209 451
e 209 510
e 210 445
e 210 549
e 211 225
e 211 259
e 211 276
e 211 307
e 211 344
e 211 357
e 211 385
e 211 420
e 211 422
e 211 443
e 211 445
e 211 447
e 211 452
e 211 461
e 211 501
e 211 510
e 211 516
e 211 549
e 213 285
e 214 545
e 215 431
e 216 416
e 218 244
e 218 259
e 218 276
e 218 281
e 218 285
e 218 286
e 218 319
e 218 330
e 218 361
e 218 365
e 218 367
e 218 391
e 218 397
e 218 400
e 218 410
e 218 416
e 218 424
e 218 464
e 218 483
e 218 496
e 218 497
e 218 506
e 218 510
e 218 526
e 218 528
e 218 555
e 219 349
e 219 416
e 219 496
e 219 517
e 220 285
e 220 345
e 220 361
e 221 303
e 221 528
e 222 267
e 222 300
e 222 357
e 222 368
e 222 369
e 222 408
e 222 410
e 222 416
e 222 496
e 222 517
e 222 526
e 222 555
e 222 560
e 224 285
e 227 292
e 227 433
e 227 492
e 227 528
e 229 361
e 230 244
e 230 397
e 230 492
e 231 313
e 232 391
e 232 424
e 233 268
e 233 528
e 234 473
e 234 511
e 236 361
e 237 361
e 239 286
e 239 432
e 240 389
e 240 507
e 241 361
e 242 331
e 244 255
e 244 259
e 244 264
e 244 267
e 244 273
e 244 276
e 244 285
e 244 291
e 244 316
e 244 356
e 244 363
e 244 365
e 244 370
e 244 379
e 244 380
e 244 382
e 244 396
e 244 397
e 244 398
e 244 400
e 244 415
e 244 416
e 244 421
e 244 424
e 244 426
e 244 448
e 244 452
e 244 457
e 244 459
e 244 468
e 244 470
e 244 471
e 244 475
e 244 479
e 244 492
e 244 497
e 244 508
e 244 510
e 244 526
e 244 528
e 244 529
e 244 542
e 244 549
e 244 554
e 244 555
e 244 558
e 244 561
e 246 276
e 246 482
e 246 483
e 247 285
e 247 361
e 247 416
e 248 361
e 249 406
e 250 285
e 251 492
e 252 285
e 254 361
e 254 488
e 255 492
e 256 281
e 257 549
e 259 267
e 259 276
e 259 285
e 259 286
e 259 297
e 259 329
e 259 364
e 259 368
e 259 445
e 259 447
e 259 452
e 259 480
e 259 497
e 259 510
e 259 526
e 259 530
e 259 537
e 259 538
e 259 555
e 260 405
e 261 291
e 261 327
e 262 336
e 262 345
e 262 400
e 262 452
e 262 498
e 263 332
e 264 480
e 264 497
e 266 361
e 267 357
e 267 368
e 267 405
e 267 410
e 267 416
e 267 452
e 267 464
e 267 466
e 267 496
e 267 526
e 267 555
e 269 397
e 269 413
e 269 508
e 270 528
e 271 345
e 271 427
e 271 527
e 272 452
e 274 286
e 274 398
e 274 521
e 276 281
e 276 365
e 276 391
e 276 424
e 276 428
e 276 443
e 276 445
e 276 447
e 276 482
e 276 483
e 276 497
e 276 510
e 276 528
e 276 538
e 277 285
e 277 314
e 277 334
e 277 353
e 277 381
e 277 387
e 277 452
e 277 491
e 277 545
e 277 549
e 278 285
e 280 452
e 281 287
e 282 528
e 284 361
e 285 295
e 285 296
e 285 297
e 285 314
e 285 328
e 285 345
e 285 353
e 285 361
e 285 367
e 285 380
e 285 381
e 285 387
e 285 398
e 285 400
e 285 415
e 285 416
e 285 452
e 285 476
e 285 480
e 285 491
e 285 492
e 285 494
e 285 496
e 285 498
e 285 509
e 285 510
e 285 526
e 285 528
e 285 541
e 285 545
e 285 547
e 285 549
e 285 550
e 285 555
e 286 319
e 286 432
e 286 452
e 286 462
e 286 483
e 286 521
e 289 391
e 289 424
e 292 433
e 292 492
e 292 528
e 293 405
e 297 322
e 297 355
e 297 362
e 297 367
e 297 378
e 297 416
e 297 442
e 297 452
e 297 480
e 297 496
e 297 555
e 299 340
e 299 510
e 300 359
e 300 368
e 300 369
e 300 408
e 300 560
e 303 528
e 305 510
e 306 397
e 307 516
e 309 453
e 310 317
e 310 321
e 310 422
e 310 445
e 312 392
e 314 353
e 314 381
e 314 387
e 314 452
e 314 491
e 314 545
e 314 549
e 315 375
e 316 462
e 317 321
e 317 422
e 318 390
e 319 483
e 320 452
e 321 344
e 321 401
e 321 422
e 321 423
e 321 469
e 322 549
e 323 450
e 324 330
e 325 492
e 326 546
e 329 372
e 329 528
e 329 549
e 330 361
e 330 367
e 330 405
e 330 410
e 330 416
e 330 417
e 330 496
e 330 553
e 335 485
e 336 498
e 338 528
e 339 513
e 340 452
e 340 510
e 341 555
e 343 500
e 344 422
e 345 361
e 345 400
e 345 427
e 345 452
e 345 527
e 345 528
e 347 361
e 347 452
e 347 472
e 347 505
e 347 548
e 348 425
e 348 452
e 348 502
e 349 517
e 350 452
e 353 381
e 353 387
e 353 452
e 353 491
e 353 545
e 353 549
e 354 452
e 354 555
e 356 398
e 356 508
e 356 558
e 357 378
e 357 385
e 357 410
e 357 416
e 357 420
e 357 496
e 357 526
e 357 555
e 358 452
e 361 367
e 361 410
e 361 416
e 361 430
e 361 452
e 361 496
e 361 498
e 361 528
e 361 541
e 361 549
e 361 555
e 363 426
e 363 479
e 363 542
e 363 554
e 365 386
e 365 397
e 365 452
e 365 462
e 365 475
e 365 538
e 367 378
e 367 400
e 367 410
e 367 416
e 367 496
e 367 498
e 367 528
e 367 555
e 368 369
e 368 408
e 368 410
e 368 452
e 368 510
e 368 517
e 368 526
e 368 549
e 368 560
e 369 408
e 369 560
e 370 448
e 371 416
e 371 466
e 372 452
e 375 492
e 376 492
e 376 510
e 376 528
e 376 533
e 378 385
e 378 410
e 378 416
e 378 446
e 378 496
e 380 415
e 380 452
e 380 528
e 380 549
e 381 387
e 381 452
e 381 491
e 381 545
e 381 549
e 382 477
e 384 451
e 384 510
e 385 410
e 385 420
e 385 496
e 387 452
e 387 491
e 387 545
e 387 549
e 388 549
e 389 507
e 391 424
e 391 510
e 391 538
e 393 522
e 394 452
e 396 452
e 397 398
e 397 424
e 397 492
e 397 532
e 397 538
e 398 415
e 398 492
e 398 508
e 398 528
e 398 549
e 398 555
e 398 558
e 400 452
e 400 492
e 400 496
e 400 498
e 400 515
e 400 526
e 400 528
e 400 549
e 400 555
e 402 504
e 404 549
e 405 452
e 405 496
e 405 526
e 407 513
e 408 560
e 409 416
e 410 416
e 410 496
e 410 526
e 410 555
e 411 457
e 413 508
e 416 434
e 416 452
e 416 466
e 416 478
e 416 492
e 416 496
e 416 517
e 416 524
e 416 526
e 416 549
e 416 555
e 419 452
e 424 510
e 424 523
e 424 525
e 424 532
e 424 538
e 424 541
e 425 452
e 425 502
e 426 479
e 426 542
e 426 554
e 427 527
e 429 469
e 432 528
e 433 492
e 433 528
e 434 478
e 434 549
e 435 447
e 439 498
e 441 525
e 443 538
e 444 452
e 445 447
e 445 526
e 445 537
e 447 452
e 447 497
e 447 510
e 447 526
e 447 549
e 447 551
e 451 510
e 452 456
e 452 476
e 452 480
e 452 489
e 452 491
e 452 492
e 452 493
e 452 497
e 452 501
e 452 502
e 452 503
e 452 510
e 452 526
e 452 527
e 452 528
e 452 532
e 452 535
e 452 544
e 452 545
e 452 549
e 452 555
e 452 556
e 454 492
e 455 498
e 461 519
e 462 521
e 464 551
e 464 555
e 465 487
e 472 505
e 472 548
e 473 511
e 473 538
e 478 549
e 479 542
e 479 554
e 480 497
e 480 555
e 482 483
e 482 512
e 486 492
e 489 491
e 489 526
e 490 528
e 491 526
e 491 545
e 491 549
e 492 496
e 492 506
e 492 510
e 492 528
e 492 533
e 492 543
e 492 549
e 492 555
e 496 498
e 496 526
e 496 528
e 496 541
e 496 549
e 496 555
e 497 510
e 498 528
e 498 541
e 498 549
e 498 555
e 505 548
e 508 558
e 510 528
e 510 538
e 510 549
e 512 538
e 517 555
e 524 526
e 524 549
e 526 528
e 526 538
e 526 549
e 526 551
e 526 555
e 528 533
e 528 541
e 528 549
e 528 555
e 528 561
e 541 549
e 541 555
e 542 554
e 545 549
e 549 555
