results/10m_incmaxclq_results/homer.col.out
Using the degeneracy ordering...
instance information: #node=561, #edge=1628 density= 0.0104
initial clique size: 10

Current MaxClique Size=11 0
Max Clique Size: 11
Clique Output: 189 277 285 314 353 381 387 452 491 545 549
Current MaxClique Size=12 0
Max Clique Size: 12
Clique Output: 114 189 277 285 314 353 381 387 452 491 545 549
Current MaxClique Size=13 0
Max Clique Size: 13
Clique Output: 64 114 189 277 285 314 353 381 387 452 491 545 549
Max Clique Size: 13
Clique Output: 64 114 189 277 285 314 353 381 387 452 491 545 549
Program terminated in 0 seconds.
NewIncMaxCLQ graphs/homer.col 561 1628 0.0104 0 0 13 159 0
