results/clicolcom_results/homer.col.log
graphs/homer.col
c found max clique of size 13
c found chromatic number: 13
time: 0
